Q:[														
30000 30000 30000	30000	30000	50000	50000	50000 100000 100000									
]														
														
q:														
[														
0														
5000														
5000														
5000														
5000														
5000														
5000														
5000														
5000														
5000														
5000														
5000														
10000														
10000														
10000														
10000														
10000														
10000														
10000														
10000														
10000														
10000														
20000														
20000														
20000														
30000														
500														
500														
500														
500														
500														
500														
500														
500														
500														
500														
500														
1000														
1000														
1000														
1000														
1000														
1000														
1000														
1000														
1000														
1000														
2000														
2000														
2000														
3000]														
														
L:														
[30000	30000	30000	30000	30000	25000	25000	25000	25000	25000	20000	20000	20000	20000	20000
30000	30000	30000	30000	30000	25000	25000	25000	25000	25000	20000	20000	20000	20000	20000
30000	30000	30000	30000	30000	25000	25000	25000	25000	25000	20000	20000	20000	20000	20000
30000	30000	30000	30000	30000	25000	25000	25000	25000	25000	20000	20000	20000	20000	20000
30000	30000	30000	30000	30000	50000	50000	50000	50000	50000	60000	60000	60000	60000	60000
30000	30000	30000	30000	30000	50000	50000	50000	50000	50000	60000	60000	60000	60000	60000
30000	30000	30000	30000	30000	50000	50000	50000	50000	50000	60000	60000	60000	60000	60000
30000	30000	30000	30000	30000	50000	50000	50000	50000	50000	60000	60000	60000	60000	60000
30000	30000	30000	30000	30000	50000	50000	50000	50000	50000	60000	60000	60000	60000	60000
30000	30000	30000	30000	30000	50000	50000	50000	50000	50000	60000	60000	60000	60000	60000
30000	30000	30000	30000	30000	50000	50000	50000	50000	50000	60000	60000	60000	60000	60000
30000	30000	30000	30000	30000	50000	50000	50000	50000	50000	60000	60000	60000	60000	60000
30000	30000	30000	30000	30000	50000	50000	50000	50000	50000	80000	80000	80000	80000	80000
30000	30000	30000	30000	30000	50000	50000	50000	50000	50000	80000	80000	80000	80000	80000
30000	30000	30000	30000	30000	50000	50000	50000	50000	50000	80000	80000	80000	80000	80000
30000	30000	30000	30000	30000	50000	50000	50000	50000	50000	80000	80000	80000	80000	80000
30000	30000	30000	30000	30000	50000	50000	50000	50000	50000	80000	80000	80000	80000	80000
30000	30000	30000	30000	30000	50000	50000	50000	50000	50000	100000	100000	100000	100000	100000
30000	30000	30000	30000	30000	50000	50000	50000	50000	50000	100000	100000	100000	100000	100000
30000	30000	30000	30000	30000	50000	50000	50000	50000	50000	100000	100000	100000	100000	100000
30000	30000	30000	30000	30000	50000	50000	50000	50000	50000	100000	100000	100000	100000	100000
30000	30000	30000	30000	30000	50000	50000	50000	50000	50000	100000	100000	100000	100000	100000
30000	30000	30000	30000	30000	50000	50000	50000	50000	50000	100000	100000	100000	100000	100000
30000	30000	30000	30000	30000	50000	50000	50000	50000	50000	100000	100000	100000	100000	100000
30000	30000	30000	30000	30000	50000	50000	50000	50000	50000	100000	100000	100000	100000	100000
30000	30000	30000	30000	30000	25000	25000	25000	25000	25000	20000	20000	20000	20000	20000
30000	30000	30000	30000	30000	25000	25000	25000	25000	25000	20000	20000	20000	20000	20000
30000	30000	30000	30000	30000	25000	25000	25000	25000	25000	20000	20000	20000	20000	20000
30000	30000	30000	30000	30000	25000	25000	25000	25000	25000	20000	20000	20000	20000	20000
30000	30000	30000	30000	30000	50000	50000	50000	50000	50000	60000	60000	60000	60000	60000
30000	30000	30000	30000	30000	50000	50000	50000	50000	50000	60000	60000	60000	60000	60000
30000	30000	30000	30000	30000	50000	50000	50000	50000	50000	60000	60000	60000	60000	60000
30000	30000	30000	30000	30000	50000	50000	50000	50000	50000	60000	60000	60000	60000	60000
30000	30000	30000	30000	30000	50000	50000	50000	50000	50000	60000	60000	60000	60000	60000
30000	30000	30000	30000	30000	50000	50000	50000	50000	50000	60000	60000	60000	60000	60000
30000	30000	30000	30000	30000	50000	50000	50000	50000	50000	60000	60000	60000	60000	60000
30000	30000	30000	30000	30000	50000	50000	50000	50000	50000	60000	60000	60000	60000	60000
30000	30000	30000	30000	30000	50000	50000	50000	50000	50000	80000	80000	80000	80000	80000
30000	30000	30000	30000	30000	50000	50000	50000	50000	50000	80000	80000	80000	80000	80000
30000	30000	30000	30000	30000	50000	50000	50000	50000	50000	80000	80000	80000	80000	80000
30000	30000	30000	30000	30000	50000	50000	50000	50000	50000	80000	80000	80000	80000	80000
30000	30000	30000	30000	30000	50000	50000	50000	50000	50000	80000	80000	80000	80000	80000
30000	30000	30000	30000	30000	50000	50000	50000	50000	50000	100000	100000	100000	100000	100000
30000	30000	30000	30000	30000	50000	50000	50000	50000	50000	100000	100000	100000	100000	100000
30000	30000	30000	30000	30000	50000	50000	50000	50000	50000	100000	100000	100000	100000	100000
30000	30000	30000	30000	30000	50000	50000	50000	50000	50000	100000	100000	100000	100000	100000
30000	30000	30000	30000	30000	50000	50000	50000	50000	50000	100000	100000	100000	100000	100000
30000	30000	30000	30000	30000	50000	50000	50000	50000	50000	100000	100000	100000	100000	100000
30000	30000	30000	30000	30000	50000	50000	50000	50000	50000	100000	100000	100000	100000	100000
30000	30000	30000	30000	30000	50000	50000	50000	50000	50000	100000	100000	100000	100000	100000
]														
														
coord:														
[														
0	0													
45	73
23	33
59	31
90	64
86	77
27	5
25	19
53	19
22	18
53	90
36	56
87	3
100	82
29	30
83	65
94	82
86	99
49	42
84	82
21	59
63	79
22	98
76	96
65	44
28	53
39	4
20	21
10	13
37	90
72	1
19	42
0	37
56	73
85	45
45	73
1	51
58	56
63	95
29	57
48	82
88	33
48	58
28	57
36	90
37	6
96	28
33	46
28	8
38	7
73	2
]													
														
														
c:[1 1 1 1 1 1.3 1.3 1.3 1.3 1.3 2 2 2 2 2 ]														
														
														
r:[ 2	2	2	2	2	3	3	3	3	3	5	5	5	5	5
2	2	2	2	2	3	3	3	3	3	5	5	5	5	5
2	2	2	2	2	3	3	3	3	3	5	5	5	5	5
2	2	2	2	2	3	3	3	3	3	5	5	5	5	5
2	2	2	2	2	3	3	3	3	3	5	5	5	5	5
2	2	2	2	2	3	3	3	3	3	5	5	5	5	5
2	2	2	2	2	3	3	3	3	3	5	5	5	5	5
2	2	2	2	2	3	3	3	3	3	5	5	5	5	5
2	2	2	2	2	3	3	3	3	3	5	5	5	5	5
2	2	2	2	2	3	3	3	3	3	5	5	5	5	5
2	2	2	2	2	3	3	3	3	3	5	5	5	5	5
5	5	5	5	5	7	7	7	7	7	10	10	10	10	10
5	5	5	5	5	7	7	7	7	7	10	10	10	10	10
5	5	5	5	5	7	7	7	7	7	10	10	10	10	10
5	5	5	5	5	7	7	7	7	7	10	10	10	10	10
5	5	5	5	5	7	7	7	7	7	10	10	10	10	10
5	5	5	5	5	7	7	7	7	7	10	10	10	10	10
5	5	5	5	5	7	7	7	7	7	10	10	10	10	10
5	5	5	5	5	7	7	7	7	7	10	10	10	10	10
5	5	5	5	5	7	7	7	7	7	10	10	10	10	10
5	5	5	5	5	7	7	7	7	7	10	10	10	10	10
7	7	7	7	7	10	10	10	10	10	12	12	12	12	12
7	7	7	7	7	10	10	10	10	10	12	12	12	12	12
7	7	7	7	7	10	10	10	10	10	12	12	12	12	12
9	9	9	9	9	12	12	12	12	12	15	15	15	15	15
2	2	2	2	2	3	3	3	3	3	5	5	5	5	5
2	2	2	2	2	3	3	3	3	3	5	5	5	5	5
2	2	2	2	2	3	3	3	3	3	5	5	5	5	5
2	2	2	2	2	3	3	3	3	3	5	5	5	5	5
2	2	2	2	2	3	3	3	3	3	5	5	5	5	5
2	2	2	2	2	3	3	3	3	3	5	5	5	5	5
2	2	2	2	2	3	3	3	3	3	5	5	5	5	5
2	2	2	2	2	3	3	3	3	3	5	5	5	5	5
2	2	2	2	2	3	3	3	3	3	5	5	5	5	5
2	2	2	2	2	3	3	3	3	3	5	5	5	5	5
2	2	2	2	2	3	3	3	3	3	5	5	5	5	5
5	5	5	5	5	7	7	7	7	7	10	10	10	10	10
5	5	5	5	5	7	7	7	7	7	10	10	10	10	10
5	5	5	5	5	7	7	7	7	7	10	10	10	10	10
5	5	5	5	5	7	7	7	7	7	10	10	10	10	10
5	5	5	5	5	7	7	7	7	7	10	10	10	10	10
5	5	5	5	5	7	7	7	7	7	10	10	10	10	10
5	5	5	5	5	7	7	7	7	7	10	10	10	10	10
5	5	5	5	5	7	7	7	7	7	10	10	10	10	10
5	5	5	5	5	7	7	7	7	7	10	10	10	10	10
5	5	5	5	5	7	7	7	7	7	10	10	10	10	10
7	7	7	7	7	10	10	10	10	10	12	12	12	12	12
7	7	7	7	7	10	10	10	10	10	12	12	12	12	12
7	7	7	7	7	10	10	10	10	10	12	12	12	12	12
9	9	9	9	9	12	12	12	12	12	15	15	15	15	15
]														
